0 9 9 9 9 9 9 9 9 9 9 9 9 9 9 9 9 
9 0 8 11 3 8 6 13 6 16 9 12 1 8 7 14 4 
9 8 0 8 3 8 8 8 8 8 8 11 1 8 8 8 4 
9 11 8 0 3 14 12 10 9 13 10 13 1 14 12 15 4 
9 3 3 3 0 3 3 3 3 3 3 3 3 3 3 3 3 
9 8 8 14 3 0 6 16 14 11 9 10 1 9 9 7 4 
9 6 8 12 3 6 0 6 6 13 6 9 1 6 6 5 4 
9 13 8 10 3 16 6 0 1 11 9 7 1 11 1 11 4 
9 6 8 9 3 14 6 1 0 17 9 7 1 1 1 8 4 
9 16 8 13 3 11 13 11 17 0 11 7 1 16 19 9 4 
9 9 8 10 3 9 6 9 9 11 0 8 1 9 9 9 4 
9 12 11 13 3 10 9 7 7 7 8 0 6 11 9 15 12 
9 1 1 1 3 1 1 1 1 1 1 6 0 1 1 1 1 
9 8 8 14 3 9 6 11 1 16 9 11 1 0 10 11 4 
9 7 8 12 3 9 6 1 1 19 9 9 1 10 0 13 4 
9 14 8 15 3 7 5 11 8 9 9 15 1 11 13 0 4 
9 4 4 4 3 4 4 4 4 4 4 12 1 4 4 4 0 